StudentsNr = 200;
InstructorsNr = 93;
DaysNr = 8;
SlotsPerDay = 40;
AvailabilitySlotsLenght = 40;
RoomNr = 3;
ProgrammNr = 1;
DegreeNr = 3;
RolesNr = 0;
CoursesNr = 17;
InstructorsProgramm = [{1}, {1}, {1}, {1}, {1}, {1}, {1}, {1}, {1}, {1}, {1}, {1}, {1}, {1}, {1}, {1}, {1}, {1}, {1}, {1}, {1}, {1}, {1}, {1}, {1}, {1}, {1}, {1}, {1}, {1}, {1}, {1}, {1}, {1}, {1}, {1}, {1}, {1}, {1}, {1}, {1}, {1}, {1}, {1}, {1}, {1}, {1}, {1}, {1}, {1}, {1}, {1}, {1}, {1}, {1}, {1}, {1}, {1}, {1}, {1}, {1}, {1}, {1}, {1}, {1}, {1}, {1}, {1}, {1}, {1}, {1}, {1}, {1}, {1}, {1}, {1}, {1}, {1}, {1}, {1}, {1}, {1}, {1}, {1}, {1}, {1}, {1}, {1}, {1}, {1}, {1}, {1}, {1}];
InstructorRolesPerProgramm = array2d(1..ProgrammNr,{},[]);
InstructorsAvailability = [|1, 1, 1, 1, 1, 1, 0, 1, |1, 1, 1, 1, 0, 0, 1, 1, |0, 1, 0, 0, 1, 1, 1, 1, |1, 1, 1, 0, 1, 1, 1, 1, |0, 0, 0, 1, 1, 1, 1, 1, |1, 1, 1, 1, 1, 1, 1, 1, |1, 1, 1, 1, 1, 1, 1, 1, |1, 1, 1, 1, 1, 1, 1, 1, |0, 0, 0, 1, 1, 0, 0, 0, |0, 1, 1, 1, 1, 1, 1, 1, |1, 1, 1, 1, 1, 1, 0, 1, |1, 1, 0, 1, 1, 0, 1, 1, |0, 1, 1, 1, 1, 1, 0, 0, |0, 1, 1, 1, 1, 0, 1, 0, |0, 1, 1, 1, 1, 1, 0, 1, |1, 1, 0, 1, 1, 0, 1, 1, |0, 1, 1, 1, 1, 1, 1, 1, |0, 0, 0, 1, 1, 1, 1, 1, |1, 1, 1, 1, 1, 1, 1, 1, |1, 1, 0, 0, 1, 1, 1, 0, |1, 1, 1, 1, 1, 1, 1, 1, |1, 1, 1, 1, 1, 1, 1, 1, |1, 0, 1, 0, 1, 1, 1, 1, |1, 1, 1, 1, 1, 1, 1, 1, |0, 1, 1, 0, 1, 1, 0, 1, |0, 1, 1, 0, 0, 1, 1, 1, |1, 1, 1, 1, 1, 1, 1, 1, |1, 1, 1, 1, 1, 1, 1, 1, |1, 1, 1, 1, 1, 1, 1, 0, |1, 0, 1, 1, 1, 1, 1, 0, |1, 1, 1, 1, 1, 1, 1, 1, |1, 1, 1, 1, 0, 1, 1, 1, |0, 1, 1, 1, 1, 1, 1, 1, |1, 1, 1, 1, 1, 0, 1, 1, |1, 0, 0, 0, 0, 0, 1, 1, |0, 1, 0, 1, 1, 1, 1, 0, |0, 1, 1, 1, 1, 1, 1, 1, |1, 0, 1, 1, 1, 0, 0, 1, |1, 1, 1, 1, 1, 0, 1, 1, |0, 0, 0, 1, 1, 1, 1, 1, |1, 1, 1, 1, 0, 0, 0, 0, |1, 0, 1, 1, 1, 1, 0, 0, |0, 0, 1, 1, 1, 1, 1, 1, |1, 1, 0, 0, 1, 1, 1, 1, |1, 1, 1, 1, 1, 1, 1, 1, |1, 1, 1, 1, 1, 1, 1, 1, |1, 1, 1, 1, 1, 0, 1, 1, |0, 1, 1, 1, 1, 1, 1, 0, |0, 1, 1, 0, 0, 1, 1, 0, |0, 0, 1, 0, 0, 0, 1, 1, |1, 1, 1, 1, 1, 0, 1, 1, |0, 0, 0, 1, 1, 1, 1, 0, |1, 1, 1, 1, 1, 0, 0, 1, |0, 1, 1, 1, 1, 1, 1, 1, |1, 1, 1, 0, 1, 1, 1, 1, |1, 1, 1, 1, 1, 1, 1, 1, |1, 1, 1, 0, 1, 0, 1, 1, |1, 1, 0, 1, 0, 1, 1, 1, |0, 0, 1, 0, 0, 0, 1, 1, |0, 0, 1, 1, 1, 1, 1, 1, |1, 1, 0, 1, 1, 0, 1, 1, |1, 0, 1, 1, 1, 0, 0, 1, |1, 1, 1, 1, 1, 0, 1, 0, |1, 1, 1, 0, 1, 1, 0, 0, |1, 1, 1, 1, 1, 1, 1, 1, |1, 1, 1, 1, 1, 1, 1, 1, |0, 0, 1, 0, 1, 1, 0, 1, |0, 0, 1, 1, 1, 1, 1, 1, |0, 0, 1, 0, 0, 0, 0, 1, |0, 0, 1, 1, 1, 1, 0, 0, |1, 1, 1, 1, 1, 1, 1, 1, |1, 1, 0, 1, 1, 1, 1, 1, |1, 1, 1, 1, 1, 1, 0, 1, |0, 1, 1, 0, 0, 0, 1, 1, |1, 1, 1, 1, 1, 1, 1, 1, |1, 1, 0, 0, 0, 0, 0, 0, |1, 0, 0, 1, 1, 1, 0, 0, |1, 1, 1, 1, 1, 1, 1, 1, |1, 1, 1, 1, 1, 1, 1, 1, |1, 0, 1, 0, 1, 1, 1, 1, |1, 1, 1, 1, 1, 1, 1, 1, |1, 0, 1, 1, 0, 0, 1, 1, |0, 1, 1, 1, 0, 0, 1, 1, |0, 1, 1, 1, 1, 1, 1, 0, |0, 1, 1, 1, 1, 1, 1, 1, |1, 1, 1, 1, 1, 1, 0, 1, |1, 1, 1, 1, 1, 1, 1, 1, |1, 1, 1, 1, 1, 1, 1, 1, |1, 1, 1, 1, 1, 1, 0, 0, |0, 1, 1, 1, 1, 1, 1, 1, |1, 1, 0, 1, 1, 1, 1, 1, |1, 1, 1, 1, 1, 1, 1, 1, |1, 0, 0, 0, 1, 1, 1, 0|];
StudentsProgramm = [1, 1, 1, 1, 1, 1, 1, 1, 1, 1, 1, 1, 1, 1, 1, 1, 1, 1, 1, 1, 1, 1, 1, 1, 1, 1, 1, 1, 1, 1, 1, 1, 1, 1, 1, 1, 1, 1, 1, 1, 1, 1, 1, 1, 1, 1, 1, 1, 1, 1, 1, 1, 1, 1, 1, 1, 1, 1, 1, 1, 1, 1, 1, 1, 1, 1, 1, 1, 1, 1, 1, 1, 1, 1, 1, 1, 1, 1, 1, 1, 1, 1, 1, 1, 1, 1, 1, 1, 1, 1, 1, 1, 1, 1, 1, 1, 1, 1, 1, 1, 1, 1, 1, 1, 1, 1, 1, 1, 1, 1, 1, 1, 1, 1, 1, 1, 1, 1, 1, 1, 1, 1, 1, 1, 1, 1, 1, 1, 1, 1, 1, 1, 1, 1, 1, 1, 1, 1, 1, 1, 1, 1, 1, 1, 1, 1, 1, 1, 1, 1, 1, 1, 1, 1, 1, 1, 1, 1, 1, 1, 1, 1, 1, 1, 1, 1, 1, 1, 1, 1, 1, 1, 1, 1, 1, 1, 1, 1, 1, 1, 1, 1, 1, 1, 1, 1, 1, 1, 1, 1, 1, 1, 1, 1, 1, 1, 1, 1, 1, 1];
StudentsDegree = [1, 3, 1, 2, 2, 3, 1, 3, 3, 3, 1, 2, 2, 2, 2, 1, 3, 3, 2, 2, 1, 3, 3, 1, 2, 1, 3, 3, 2, 3, 1, 3, 3, 3, 1, 2, 2, 2, 3, 3, 3, 1, 2, 3, 2, 1, 3, 1, 3, 3, 3, 1, 2, 3, 1, 2, 2, 1, 2, 3, 3, 3, 1, 2, 2, 1, 1, 1, 1, 1, 1, 3, 2, 3, 3, 3, 1, 1, 3, 2, 3, 1, 3, 2, 2, 3, 3, 1, 2, 1, 1, 3, 1, 1, 1, 1, 2, 2, 1, 2, 2, 1, 1, 2, 1, 2, 1, 2, 3, 1, 1, 3, 2, 1, 2, 3, 3, 2, 3, 2, 1, 3, 2, 3, 1, 3, 2, 3, 2, 1, 3, 1, 3, 3, 3, 1, 3, 1, 1, 2, 2, 3, 3, 1, 2, 2, 1, 2, 1, 3, 2, 3, 1, 3, 2, 3, 2, 1, 2, 1, 2, 1, 1, 1, 1, 3, 2, 2, 2, 3, 3, 3, 3, 1, 3, 2, 3, 3, 2, 1, 3, 1, 3, 1, 1, 1, 1, 3, 2, 2, 1, 3, 1, 2, 2, 1, 2, 1, 3, 3];
StudentsSupervisorId = [86, 81, 78, 69, 56, 59, 35, 49, 82, 54, 70, 5, 30, 44, 53, 59, 40, 93, 20, 86, 4, 21, 73, 64, 75, 46, 8, 11, 81, 73, 72, 89, 78, 19, 77, 43, 51, 21, 53, 6, 8, 52, 30, 3, 73, 52, 86, 51, 1, 29, 57, 11, 50, 87, 88, 8, 85, 13, 35, 54, 75, 46, 80, 44, 54, 69, 6, 13, 61, 75, 83, 2, 63, 22, 2, 48, 70, 77, 74, 65, 82, 87, 57, 11, 72, 55, 6, 88, 16, 5, 82, 90, 32, 65, 55, 61, 92, 79, 28, 15, 40, 5, 82, 89, 71, 34, 65, 55, 48, 73, 32, 20, 3, 1, 81, 64, 36, 9, 34, 40, 64, 74, 45, 35, 60, 24, 84, 83, 1, 35, 46, 35, 20, 48, 64, 92, 47, 49, 23, 33, 3, 70, 40, 78, 57, 32, 26, 64, 49, 68, 12, 71, 47, 24, 69, 91, 59, 29, 41, 92, 82, 38, 40, 61, 60, 36, 38, 39, 86, 59, 93, 78, 4, 61, 11, 3, 77, 63, 85, 34, 78, 62, 29, 18, 79, 22, 38, 67, 47, 4, 73, 6, 77, 70, 76, 31, 24, 35, 84, 14];
StudentsCourseIds = [{14, 16}, {1, 2, 4, 5, 6, 7, 9, 10, 11, 12, 13, 14, 15, 16, 17}, {4, 12}, {}, {}, {1, 3, 4, 5, 6, 7, 8, 9, 10, 11, 13, 14, 15, 16, 17}, {4, 6}, {1, 2, 3, 5, 6, 8, 9, 10, 11, 12, 13, 14, 15, 16, 17}, {1, 2, 4, 5, 6, 7, 9, 10, 11, 12, 13, 14, 15, 16, 17}, {1, 2, 3, 4, 5, 7, 8, 9, 11, 12, 13, 14, 15, 16, 17}, {5, 8}, {}, {}, {}, {}, {1, 13}, {1, 2, 4, 5, 6, 7, 8, 9, 10, 11, 12, 14, 15, 16, 17}, {1, 2, 3, 4, 5, 6, 7, 8, 9, 10, 12, 13, 14, 16, 17}, {}, {}, {13, 15}, {1, 2, 3, 4, 5, 6, 7, 9, 10, 11, 12, 13, 14, 16, 17}, {1, 2, 3, 5, 6, 7, 8, 9, 10, 11, 12, 14, 15, 16, 17}, {1, 12}, {}, {4, 14}, {1, 2, 4, 5, 6, 7, 8, 9, 10, 11, 12, 14, 15, 16, 17}, {1, 2, 3, 4, 5, 6, 7, 8, 9, 10, 11, 13, 15, 16, 17}, {}, {1, 3, 4, 5, 6, 7, 9, 10, 11, 12, 13, 14, 15, 16, 17}, {14, 15}, {1, 2, 3, 6, 7, 8, 9, 10, 11, 12, 13, 14, 15, 16, 17}, {1, 3, 4, 5, 6, 8, 9, 10, 11, 12, 13, 14, 15, 16, 17}, {1, 2, 3, 4, 5, 6, 9, 10, 11, 12, 13, 14, 15, 16, 17}, {11, 17}, {}, {}, {}, {1, 2, 3, 4, 6, 7, 8, 9, 10, 11, 13, 14, 15, 16, 17}, {2, 3, 4, 5, 6, 7, 9, 10, 11, 12, 13, 14, 15, 16, 17}, {1, 3, 4, 5, 6, 7, 8, 9, 10, 12, 13, 14, 15, 16, 17}, {6, 14}, {}, {1, 3, 4, 6, 7, 8, 9, 10, 11, 12, 13, 14, 15, 16, 17}, {}, {1, 8}, {1, 3, 4, 5, 6, 7, 8, 9, 10, 11, 12, 13, 15, 16, 17}, {9, 14}, {1, 2, 3, 4, 6, 7, 8, 9, 10, 11, 12, 13, 15, 16, 17}, {1, 2, 4, 5, 6, 8, 9, 10, 11, 12, 13, 14, 15, 16, 17}, {1, 2, 3, 4, 5, 6, 7, 8, 10, 11, 13, 14, 15, 16, 17}, {8, 15}, {}, {1, 2, 3, 4, 5, 6, 8, 10, 11, 12, 13, 14, 15, 16, 17}, {3, 13}, {}, {}, {10, 16}, {}, {2, 3, 5, 6, 7, 8, 9, 10, 11, 12, 13, 14, 15, 16, 17}, {1, 2, 4, 5, 6, 7, 8, 9, 10, 11, 13, 14, 15, 16, 17}, {1, 3, 4, 5, 6, 7, 8, 9, 10, 11, 12, 13, 14, 16, 17}, {5, 17}, {}, {}, {8, 15}, {8, 17}, {12, 16}, {3, 15}, {10, 11}, {9, 10}, {1, 2, 3, 5, 6, 7, 8, 9, 10, 11, 12, 13, 15, 16, 17}, {}, {1, 2, 5, 6, 7, 8, 9, 10, 11, 12, 13, 14, 15, 16, 17}, {1, 2, 3, 4, 6, 7, 8, 9, 10, 11, 12, 14, 15, 16, 17}, {1, 2, 3, 4, 5, 6, 8, 9, 11, 12, 13, 14, 15, 16, 17}, {10, 12}, {2, 5}, {1, 2, 4, 5, 6, 7, 8, 9, 10, 11, 12, 13, 14, 15, 17}, {}, {1, 2, 3, 4, 5, 7, 8, 9, 10, 11, 12, 14, 15, 16, 17}, {5, 7}, {1, 2, 3, 5, 7, 8, 9, 10, 11, 12, 13, 14, 15, 16, 17}, {}, {}, {2, 3, 4, 6, 7, 8, 9, 10, 11, 12, 13, 14, 15, 16, 17}, {1, 2, 3, 4, 6, 7, 9, 10, 11, 12, 13, 14, 15, 16, 17}, {1, 7}, {}, {4, 5}, {4, 14}, {1, 2, 3, 4, 5, 7, 8, 9, 10, 11, 13, 14, 15, 16, 17}, {14, 15}, {12, 15}, {1, 2}, {2, 17}, {}, {}, {2, 13}, {}, {}, {10, 17}, {5, 17}, {}, {1, 3}, {}, {1, 12}, {}, {1, 2, 3, 4, 5, 6, 7, 8, 9, 10, 12, 13, 14, 16, 17}, {10, 14}, {6, 7}, {1, 2, 3, 4, 7, 8, 9, 10, 11, 12, 13, 14, 15, 16, 17}, {}, {5, 8}, {}, {1, 2, 3, 4, 5, 6, 7, 8, 9, 10, 11, 12, 13, 14, 17}, {1, 2, 3, 4, 5, 7, 8, 9, 10, 11, 13, 14, 15, 16, 17}, {}, {1, 2, 3, 4, 6, 7, 8, 9, 10, 11, 12, 14, 15, 16, 17}, {}, {4, 17}, {1, 3, 4, 5, 6, 7, 8, 9, 10, 11, 12, 13, 14, 15, 16}, {}, {1, 2, 3, 4, 5, 6, 7, 8, 9, 10, 13, 14, 15, 16, 17}, {8, 10}, {2, 3, 4, 5, 6, 7, 8, 9, 10, 11, 12, 13, 14, 15, 17}, {}, {1, 2, 3, 4, 5, 7, 8, 9, 10, 11, 12, 13, 14, 15, 17}, {}, {14, 15}, {1, 3, 4, 5, 6, 7, 8, 9, 10, 11, 12, 13, 15, 16, 17}, {8, 15}, {1, 2, 3, 4, 5, 6, 7, 8, 9, 10, 11, 12, 13, 16, 17}, {1, 2, 3, 4, 5, 6, 7, 8, 9, 10, 11, 14, 15, 16, 17}, {1, 2, 3, 5, 6, 7, 8, 9, 10, 11, 12, 13, 14, 15, 16}, {3, 8}, {1, 3, 4, 5, 6, 7, 9, 10, 11, 12, 13, 14, 15, 16, 17}, {2, 12}, {5, 6}, {}, {}, {1, 2, 3, 4, 6, 7, 8, 9, 10, 11, 12, 13, 14, 16, 17}, {1, 2, 3, 4, 5, 6, 7, 8, 10, 11, 12, 13, 14, 15, 16}, {11, 15}, {}, {}, {4, 12}, {}, {4, 14}, {1, 2, 3, 4, 5, 6, 7, 9, 10, 11, 13, 14, 15, 16, 17}, {}, {1, 2, 3, 4, 5, 6, 7, 8, 9, 10, 11, 12, 13, 14, 17}, {12, 17}, {3, 4, 5, 6, 7, 8, 9, 10, 11, 12, 13, 14, 15, 16, 17}, {}, {1, 2, 3, 4, 5, 6, 7, 8, 10, 11, 12, 13, 15, 16, 17}, {}, {5, 10}, {}, {4, 5}, {}, {10, 16}, {4, 5}, {8, 13}, {6, 11}, {1, 2, 3, 4, 5, 6, 7, 8, 9, 10, 11, 13, 14, 16, 17}, {}, {}, {}, {1, 2, 4, 5, 6, 7, 8, 9, 10, 11, 13, 14, 15, 16, 17}, {1, 2, 3, 4, 5, 6, 7, 8, 9, 10, 12, 13, 14, 15, 17}, {1, 2, 3, 4, 5, 7, 8, 9, 11, 12, 13, 14, 15, 16, 17}, {1, 3, 4, 6, 7, 8, 9, 10, 11, 12, 13, 14, 15, 16, 17}, {1, 4}, {1, 2, 3, 4, 5, 6, 7, 8, 9, 11, 12, 13, 14, 15, 17}, {}, {1, 2, 3, 4, 5, 6, 7, 8, 9, 10, 11, 12, 13, 14, 17}, {1, 2, 3, 4, 5, 7, 8, 9, 10, 11, 13, 14, 15, 16, 17}, {}, {1, 9}, {1, 2, 3, 4, 5, 7, 8, 9, 10, 11, 12, 13, 15, 16, 17}, {6, 16}, {1, 2, 3, 4, 7, 8, 9, 10, 11, 12, 13, 14, 15, 16, 17}, {9, 17}, {7, 11}, {1, 11}, {1, 14}, {1, 3, 4, 6, 7, 8, 9, 10, 11, 12, 13, 14, 15, 16, 17}, {}, {}, {6, 8}, {1, 2, 3, 4, 5, 6, 8, 9, 10, 11, 12, 13, 14, 16, 17}, {6, 14}, {}, {}, {9, 14}, {}, {3, 11}, {2, 3, 4, 5, 6, 7, 9, 10, 11, 12, 13, 14, 15, 16, 17}, {1, 2, 3, 4, 6, 7, 8, 9, 10, 11, 12, 13, 14, 16, 17}];
StudentsAvailability = [|0, 0, 1, 1, 1, 1, 1, 1, |1, 1, 1, 0, 0, 1, 1, 1, |1, 1, 1, 1, 1, 0, 0, 1, |1, 1, 1, 1, 1, 1, 1, 0, |1, 1, 1, 1, 1, 1, 1, 1, |1, 0, 1, 1, 0, 1, 1, 1, |1, 1, 1, 1, 1, 1, 1, 1, |0, 1, 1, 1, 1, 1, 1, 1, |1, 1, 1, 1, 1, 1, 1, 1, |1, 1, 1, 1, 1, 1, 0, 1, |1, 1, 1, 1, 1, 0, 1, 1, |1, 1, 1, 1, 1, 1, 1, 0, |1, 1, 1, 0, 1, 1, 1, 1, |1, 1, 1, 1, 1, 1, 1, 1, |1, 1, 0, 0, 0, 0, 1, 0, |1, 1, 1, 1, 1, 1, 0, 1, |1, 1, 1, 1, 1, 1, 1, 1, |1, 1, 1, 1, 0, 1, 1, 0, |1, 1, 0, 1, 1, 1, 1, 1, |1, 1, 1, 1, 1, 1, 1, 1, |1, 0, 1, 1, 1, 1, 1, 1, |1, 1, 1, 1, 1, 1, 1, 1, |1, 0, 0, 1, 1, 1, 1, 0, |1, 0, 1, 0, 1, 1, 0, 1, |0, 1, 1, 1, 1, 1, 1, 0, |1, 1, 1, 1, 0, 0, 1, 1, |0, 1, 1, 1, 1, 1, 1, 1, |0, 1, 1, 1, 1, 1, 1, 0, |1, 1, 1, 1, 1, 1, 1, 1, |1, 1, 1, 1, 0, 1, 1, 1, |0, 1, 1, 1, 0, 0, 1, 1, |1, 1, 1, 1, 1, 1, 1, 1, |1, 1, 1, 1, 1, 1, 1, 1, |1, 1, 1, 1, 1, 1, 1, 1, |1, 1, 1, 1, 1, 1, 1, 1, |1, 1, 1, 1, 1, 1, 1, 1, |1, 1, 1, 1, 1, 1, 1, 1, |0, 1, 1, 1, 1, 1, 1, 1, |1, 1, 1, 1, 0, 1, 1, 1, |1, 1, 1, 1, 1, 1, 1, 1, |1, 1, 1, 1, 1, 1, 1, 1, |1, 1, 1, 1, 1, 1, 1, 1, |1, 1, 1, 1, 1, 1, 0, 1, |1, 1, 1, 1, 1, 1, 1, 1, |1, 1, 1, 1, 0, 1, 1, 1, |1, 1, 1, 1, 1, 1, 0, 0, |1, 1, 0, 0, 0, 1, 1, 1, |1, 1, 1, 1, 1, 1, 1, 1, |0, 1, 1, 1, 1, 1, 1, 1, |1, 0, 1, 1, 1, 1, 1, 1, |1, 1, 1, 1, 1, 0, 1, 1, |1, 1, 1, 1, 1, 1, 1, 1, |1, 0, 0, 0, 1, 1, 1, 1, |1, 1, 1, 1, 1, 1, 1, 1, |1, 0, 0, 0, 0, 0, 1, 1, |1, 1, 1, 1, 1, 1, 1, 1, |0, 1, 1, 1, 1, 1, 1, 1, |1, 1, 1, 1, 1, 1, 1, 1, |1, 1, 1, 1, 1, 1, 1, 1, |1, 1, 1, 1, 1, 1, 1, 1, |1, 1, 0, 1, 1, 1, 1, 1, |1, 1, 1, 1, 1, 1, 1, 1, |1, 1, 1, 1, 0, 1, 1, 1, |1, 1, 1, 1, 1, 1, 1, 1, |1, 1, 1, 1, 1, 1, 1, 0, |1, 1, 1, 1, 1, 1, 1, 1, |1, 0, 1, 1, 1, 1, 1, 1, |1, 1, 1, 1, 1, 1, 1, 1, |1, 1, 1, 1, 1, 1, 1, 1, |1, 1, 0, 1, 0, 1, 0, 0, |0, 1, 1, 1, 1, 1, 1, 1, |1, 1, 1, 1, 1, 1, 1, 1, |1, 1, 1, 1, 1, 1, 1, 1, |0, 1, 1, 1, 1, 1, 1, 1, |1, 1, 1, 1, 1, 1, 1, 1, |1, 1, 0, 1, 1, 1, 1, 1, |1, 1, 1, 1, 1, 0, 0, 1, |1, 1, 1, 1, 1, 1, 1, 1, |1, 1, 1, 1, 0, 1, 1, 1, |1, 1, 1, 1, 1, 1, 1, 1, |1, 1, 1, 1, 1, 1, 1, 0, |0, 0, 1, 1, 1, 1, 1, 1, |1, 1, 1, 0, 1, 1, 1, 1, |0, 0, 1, 1, 1, 1, 1, 1, |1, 1, 0, 0, 1, 1, 1, 1, |0, 1, 1, 1, 1, 1, 1, 1, |1, 1, 1, 1, 1, 1, 1, 1, |0, 0, 0, 1, 1, 1, 0, 1, |1, 1, 1, 1, 1, 1, 1, 1, |0, 1, 1, 1, 1, 1, 1, 1, |1, 1, 1, 1, 0, 0, 1, 1, |1, 0, 1, 1, 1, 1, 1, 1, |1, 1, 0, 0, 0, 1, 1, 1, |0, 1, 1, 1, 1, 1, 1, 1, |1, 1, 1, 1, 1, 1, 1, 1, |1, 1, 0, 0, 1, 1, 1, 0, |1, 1, 1, 1, 1, 1, 1, 1, |0, 0, 1, 0, 1, 1, 1, 1, |1, 1, 1, 1, 1, 1, 1, 1, |0, 1, 1, 1, 1, 1, 1, 1, |1, 0, 1, 1, 1, 0, 1, 1, |1, 1, 1, 1, 1, 1, 1, 1, |0, 1, 1, 1, 1, 1, 1, 1, |1, 1, 1, 0, 1, 1, 1, 0, |1, 1, 1, 1, 1, 1, 1, 1, |1, 1, 1, 0, 1, 1, 1, 0, |1, 1, 1, 1, 1, 1, 1, 1, |1, 1, 1, 1, 1, 1, 1, 1, |1, 1, 1, 1, 1, 1, 1, 1, |0, 1, 1, 1, 1, 1, 1, 1, |1, 1, 1, 0, 0, 1, 1, 1, |1, 1, 1, 1, 1, 1, 1, 1, |1, 1, 1, 1, 1, 1, 0, 1, |0, 0, 1, 0, 1, 1, 0, 0, |1, 1, 1, 1, 1, 1, 1, 1, |0, 1, 1, 1, 1, 1, 1, 1, |1, 1, 1, 1, 0, 0, 1, 1, |1, 1, 1, 1, 1, 1, 1, 1, |0, 1, 1, 0, 0, 1, 1, 1, |1, 0, 1, 1, 1, 1, 1, 1, |1, 1, 1, 1, 1, 1, 0, 1, |1, 1, 1, 1, 1, 1, 1, 1, |1, 1, 1, 1, 1, 1, 1, 1, |1, 1, 1, 1, 1, 1, 1, 1, |1, 1, 1, 1, 1, 1, 1, 1, |0, 1, 1, 1, 1, 1, 1, 1, |1, 1, 1, 1, 1, 1, 1, 1, |0, 0, 1, 1, 1, 1, 1, 1, |1, 1, 0, 0, 0, 1, 1, 1, |0, 1, 1, 0, 1, 1, 1, 1, |1, 1, 0, 1, 1, 1, 1, 1, |1, 0, 1, 1, 1, 1, 1, 1, |0, 0, 1, 1, 1, 1, 1, 1, |1, 1, 1, 1, 0, 1, 1, 1, |1, 1, 1, 1, 1, 1, 1, 1, |1, 1, 1, 1, 1, 1, 1, 1, |1, 1, 1, 0, 1, 1, 1, 1, |1, 0, 0, 1, 1, 0, 1, 1, |1, 0, 1, 0, 1, 1, 1, 1, |1, 1, 1, 1, 1, 1, 1, 1, |1, 1, 1, 1, 1, 0, 0, 0, |1, 1, 0, 0, 1, 1, 1, 1, |1, 1, 1, 1, 1, 1, 1, 1, |0, 0, 1, 1, 1, 1, 1, 1, |1, 1, 1, 1, 1, 1, 1, 1, |1, 1, 1, 1, 1, 1, 1, 1, |1, 1, 1, 0, 1, 1, 1, 0, |0, 1, 1, 1, 1, 1, 1, 1, |1, 1, 1, 1, 1, 1, 1, 1, |1, 1, 1, 1, 0, 1, 1, 1, |1, 1, 1, 1, 1, 1, 0, 1, |1, 1, 1, 1, 1, 1, 1, 1, |1, 1, 0, 1, 1, 1, 1, 1, |0, 1, 1, 1, 1, 0, 1, 1, |1, 1, 1, 1, 1, 1, 1, 1, |1, 1, 1, 1, 1, 1, 1, 1, |1, 1, 1, 0, 1, 1, 1, 1, |0, 1, 1, 1, 1, 1, 1, 1, |1, 1, 1, 1, 1, 1, 1, 0, |1, 1, 1, 1, 1, 1, 1, 1, |1, 1, 0, 0, 0, 1, 1, 1, |1, 1, 1, 1, 1, 1, 1, 1, |1, 1, 1, 1, 1, 1, 1, 1, |1, 1, 1, 1, 1, 1, 1, 1, |1, 1, 1, 1, 1, 1, 0, 0, |0, 0, 1, 1, 1, 1, 1, 1, |1, 1, 1, 1, 1, 1, 1, 1, |1, 1, 1, 1, 1, 1, 1, 0, |1, 1, 1, 1, 1, 1, 1, 1, |0, 1, 1, 1, 1, 1, 0, 1, |1, 1, 1, 1, 1, 1, 1, 1, |0, 1, 1, 1, 1, 1, 1, 1, |1, 0, 0, 1, 0, 1, 1, 1, |1, 1, 1, 0, 1, 1, 1, 0, |1, 1, 1, 1, 1, 1, 1, 1, |0, 1, 1, 1, 1, 1, 1, 1, |1, 1, 1, 0, 0, 1, 1, 0, |1, 1, 1, 1, 1, 1, 1, 1, |1, 1, 1, 1, 1, 1, 1, 1, |1, 0, 1, 1, 1, 0, 1, 1, |0, 1, 0, 1, 1, 1, 1, 1, |1, 1, 1, 1, 1, 1, 1, 1, |1, 1, 1, 1, 1, 1, 1, 1, |1, 1, 1, 1, 1, 1, 0, 0, |1, 1, 1, 1, 1, 1, 1, 1, |0, 1, 0, 1, 1, 1, 1, 0, |0, 1, 1, 1, 1, 1, 1, 1, |1, 1, 1, 1, 1, 1, 0, 1, |1, 1, 1, 1, 1, 1, 1, 1, |0, 1, 1, 1, 1, 1, 0, 1, |1, 1, 1, 1, 1, 1, 1, 1, |1, 1, 1, 1, 0, 1, 1, 1, |0, 1, 0, 1, 1, 1, 0, 1, |1, 1, 1, 1, 1, 1, 1, 1, |1, 1, 1, 1, 1, 1, 1, 1, |1, 1, 1, 1, 1, 1, 1, 1, |1, 0, 0, 1, 1, 1, 1, 1, |1, 1, 1, 1, 1, 1, 0, 1, |1, 1, 1, 1, 1, 1, 1, 1, |0, 1, 1, 1, 1, 1, 1, 1|];
TheoryticalMinCard = [3, 15, 2, 1, 1, 15, 2, 15, 15, 15, 2, 1, 1, 1, 1, 2, 15, 15, 1, 1, 3, 15, 15, 3, 1, 2, 15, 15, 1, 15, 2, 15, 15, 15, 3, 1, 1, 1, 15, 15, 15, 3, 1, 15, 1, 2, 15, 2, 15, 15, 15, 2, 1, 15, 2, 1, 1, 2, 1, 15, 15, 15, 2, 1, 1, 2, 3, 2, 2, 3, 2, 15, 1, 15, 15, 15, 2, 2, 15, 1, 15, 2, 15, 1, 1, 15, 15, 2, 1, 3, 3, 15, 3, 3, 3, 2, 1, 1, 3, 1, 1, 2, 3, 1, 3, 1, 2, 1, 15, 3, 3, 15, 1, 3, 1, 15, 15, 1, 15, 1, 2, 15, 1, 15, 2, 15, 1, 15, 1, 2, 15, 2, 15, 15, 15, 3, 15, 3, 2, 1, 1, 15, 15, 3, 1, 1, 2, 1, 2, 15, 1, 15, 2, 15, 1, 15, 1, 3, 1, 3, 1, 2, 2, 3, 2, 15, 1, 1, 1, 15, 15, 15, 15, 3, 15, 1, 15, 15, 1, 3, 15, 3, 15, 2, 3, 3, 3, 15, 1, 1, 3, 15, 2, 1, 1, 3, 1, 3, 15, 15];
CoursesInstructorIds = [{2, 3, 8, 9, 10, 12, 14, 16, 19, 25, 28, 29, 30, 33, 36, 39, 42, 43, 46, 48, 50, 52, 56, 57, 59, 65, 69, 74, 78, 81, 84, 85, 86, 88, 89, 90, 91, 93}, {1, 2, 3, 4, 5, 8, 9, 10, 12, 13, 15, 20, 21, 22, 23, 24, 25, 27, 29, 30, 31, 34, 35, 36, 38, 39, 40, 41, 42, 43, 45, 48, 50, 53, 54, 56, 58, 59, 60, 61, 63, 66, 69, 70, 71, 76, 80, 82, 83, 84, 85, 86, 87, 89, 91, 92, 93}, {1, 2, 5, 7, 8, 10, 11, 12, 15, 17, 22, 23, 24, 29, 30, 31, 32, 33, 34, 38, 40, 41, 42, 45, 46, 48, 51, 52, 53, 54, 57, 59, 61, 63, 66, 67, 68, 69, 76, 77, 78, 81, 84, 87, 88, 89, 90, 91, 93}, {1, 2, 3, 7, 8, 13, 14, 15, 16, 17, 19, 24, 26, 33, 35, 36, 38, 39, 40, 42, 43, 46, 47, 48, 49, 51, 52, 55, 64, 66, 67, 69, 70, 71, 72, 74, 75, 76, 77, 79, 83, 84, 86, 87, 88, 89, 91}, {2, 3, 6, 7, 9, 11, 12, 14, 17, 22, 28, 31, 32, 34, 43, 44, 45, 46, 47, 49, 54, 55, 59, 60, 63, 64, 66, 67, 68, 70, 76, 77, 80, 83, 87, 88, 89, 90}, {3, 4, 5, 6, 7, 9, 11, 14, 15, 21, 22, 23, 24, 25, 26, 27, 30, 31, 34, 35, 37, 39, 41, 45, 47, 51, 54, 55, 57, 60, 66, 67, 68, 71, 74, 75, 76, 77, 82, 83, 84, 85, 87, 89, 91}, {5, 12, 16, 19, 21, 28, 30, 31, 34, 38, 43, 46, 47, 50, 58, 60, 62, 65, 77, 86, 91}, {5, 8, 12, 19, 25, 26, 29, 30, 31, 32, 53, 54, 68, 70, 77, 79, 80, 81}, {3, 6, 7, 10, 11, 14, 16, 18, 21, 26, 27, 28, 29, 32, 33, 35, 37, 38, 41, 43, 45, 47, 48, 49, 50, 51, 52, 54, 56, 57, 58, 59, 60, 61, 63, 64, 65, 66, 71, 72, 74, 75, 76, 78, 79, 80, 81, 84, 85, 87, 89, 90, 91, 93}, {1, 3, 6, 7, 8, 9, 10, 11, 12, 13, 14, 15, 18, 20, 24, 28, 32, 33, 36, 37, 39, 43, 45, 48, 49, 50, 52, 55, 56, 58, 59, 60, 63, 66, 68, 69, 70, 72, 74, 80, 83, 84, 85, 89, 91, 92, 93}, {3, 6, 8, 9, 12, 13, 26, 29, 40, 42, 44, 51, 66, 70, 71, 73, 88, 91, 92, 93}, {1, 3, 5, 7, 8, 11, 12, 13, 16, 17, 20, 21, 22, 25, 26, 27, 28, 29, 33, 36, 37, 41, 43, 45, 46, 48, 50, 51, 52, 54, 55, 58, 62, 63, 66, 68, 69, 70, 72, 73, 74, 75, 76, 77, 78, 82, 83, 85, 86, 87, 88, 90, 91, 93}, {5, 10, 13, 18, 25, 35, 38, 39, 41, 42, 43, 53, 60, 64, 79, 85}, {1, 8, 20, 36, 43, 62, 72, 79, 84, 87, 92}, {1, 6, 7, 8, 9, 11, 12, 13, 15, 16, 21, 23, 24, 26, 28, 30, 34, 35, 36, 39, 40, 43, 44, 45, 46, 50, 51, 57, 58, 59, 60, 63, 64, 66, 67, 68, 69, 71, 73, 74, 75, 76, 80, 81, 85, 86, 88, 89, 90, 91, 92}, {3, 6, 11, 12, 13, 16, 18, 20, 21, 25, 27, 28, 30, 35, 36, 38, 41, 48, 50, 51, 52, 55, 56, 61, 68, 73, 74, 75, 76, 85, 87, 92}, {2, 4, 5, 11, 13, 15, 16, 17, 19, 20, 21, 25, 27, 29, 30, 32, 33, 34, 35, 36, 37, 39, 40, 41, 43, 45, 47, 48, 49, 50, 54, 55, 58, 61, 63, 66, 71, 72, 74, 75, 76, 78, 79, 80, 81, 84, 85, 86, 89, 90, 91, 92, 93}];
RolesDemands = [];
RolesContinuity = [];
ExamLen = [7, 4, 7, 5, 5, 4, 7, 4, 4, 4, 7, 5, 5, 5, 5, 7, 4, 4, 5, 5, 7, 4, 4, 7, 5, 7, 4, 4, 5, 4, 7, 4, 4, 4, 7, 5, 5, 5, 4, 4, 4, 7, 5, 4, 5, 7, 4, 7, 4, 4, 4, 7, 5, 4, 7, 5, 5, 7, 5, 4, 4, 4, 7, 5, 5, 7, 7, 7, 7, 7, 7, 4, 5, 4, 4, 4, 7, 7, 4, 5, 4, 7, 4, 5, 5, 4, 4, 7, 5, 7, 7, 4, 7, 7, 7, 7, 5, 5, 7, 5, 5, 7, 7, 5, 7, 5, 7, 5, 4, 7, 7, 4, 5, 7, 5, 4, 4, 5, 4, 5, 7, 4, 5, 4, 7, 4, 5, 4, 5, 7, 4, 7, 4, 4, 4, 7, 4, 7, 7, 5, 5, 4, 4, 7, 5, 5, 7, 5, 7, 4, 5, 4, 7, 4, 5, 4, 5, 7, 5, 7, 5, 7, 7, 7, 7, 4, 5, 5, 5, 4, 4, 4, 4, 7, 4, 5, 4, 4, 5, 7, 4, 7, 4, 7, 7, 7, 7, 4, 5, 5, 7, 4, 7, 5, 5, 7, 5, 7, 4, 4];
LunchTsMinLen = 4;
LunchStarts = [11..25, 51..68, 92..109, 132..142, 176..182, 212..225, 252..265, 294..303];
SupervisorAvailable = 5;
OptimalLunchLenght = [2, 7];
OptimalStartTs = [2, 2];
OptimalFinishTs = [2, 40];
MinimizeRooms = 200;
RolesSoftContinuity = array2d(1..2,{},[]);
SameDegreeInRoom = 10;
Mergeability = 0;
